<?xml version="1.0" encoding="UTF-8"?><osil xmlns="os.optimizationservices.org" xmlns:xsi="http://www.w3.org/2001/XMLSchema-instance" xsi:schemaLocation="os.optimizationservices.org http://www.optimizationservices.org/schemas/2.0/OSiL.xsd"><instanceHeader><name>cvxnonsep_normcon20</name></instanceHeader><instanceData><variables numberOfVariables="20"><var name="i1" type="I" ub="5"/><var name="i2" type="I" ub="5"/><var name="i3" type="I" ub="5"/><var name="i4" type="I" ub="5"/><var name="i5" type="I" ub="5"/><var name="i6" type="I" ub="5"/><var name="i7" type="I" ub="5"/><var name="i8" type="I" ub="5"/><var name="i9" type="I" ub="5"/><var name="i10" type="I" ub="5"/><var name="x11" ub="5"/><var name="x12" ub="5"/><var name="x13" ub="5"/><var name="x14" ub="5"/><var name="x15" ub="5"/><var name="x16" ub="5"/><var name="x17" ub="5"/><var name="x18" ub="5"/><var name="x19" ub="5"/><var name="x20" ub="5"/></variables><objectives><obj maxOrMin="min" name="defObj_objvar" numberOfObjCoef="20"><coef idx="0">-.175</coef><coef idx="1">-.39</coef><coef idx="2">-.83</coef><coef idx="3">-.805</coef><coef idx="4">-6e-2</coef><coef idx="5">-.4</coef><coef idx="6">-.52</coef><coef idx="7">-.415</coef><coef idx="8">-.655</coef><coef idx="9">-.63</coef><coef idx="10">-.29</coef><coef idx="11">-.43</coef><coef idx="12">-1.5e-2</coef><coef idx="13">-.985</coef><coef idx="14">-.165</coef><coef idx="15">-.105</coef><coef idx="16">-.37</coef><coef idx="17">-.2</coef><coef idx="18">-.49</coef><coef idx="19">-.34</coef></obj></objectives><constraints numberOfConstraints="1"><con name="e1" ub="10"/></constraints><nonlinearExpressions numberOfNonlinearExpressions="1"><nl idx="0"><sqrt><sum><square><variable idx="0"/></square><square><variable idx="1"/></square><square><variable idx="2"/></square><square><variable idx="3"/></square><square><variable idx="4"/></square><square><variable idx="5"/></square><square><variable idx="6"/></square><square><variable idx="7"/></square><square><variable idx="8"/></square><square><variable idx="9"/></square><square><variable idx="10"/></square><square><variable idx="11"/></square><square><variable idx="12"/></square><square><variable idx="13"/></square><square><variable idx="14"/></square><square><variable idx="15"/></square><square><variable idx="16"/></square><square><variable idx="17"/></square><square><variable idx="18"/></square><square><variable idx="19"/></square><number value="1e-4"/></sum></sqrt></nl></nonlinearExpressions></instanceData></osil>